benchmarks/VRPTW/TSPTW/solution/n100w20.001.txt.solution
1 89 31 2 69 50 12 58 66 10 43 29 73 21 80 5 51 96 23 25 7 61 63 87 95 54 62 57 65 33 11 9 13 71 6 30 88 35 94 77 86 93 99 79 78 4 44 3 76 75 45 14 28 42 60 56 17 92 24 20 67 48 36 41 39 19 34 97 74 32 16 8 47 84 53 49 59 85 40 98 100 91 68 90 38 83 64 82 18 72 55 15 81 46 26 27 52 22 101 37 70 
738
